c description: Random 3-CNF over 25 variables and 107 clauses
c generator: CNFgen (0.9.2)
c copyright: (C) 2012-2022 Massimo Lauria <massimo.lauria@uniroma1.it>
c url: https://massimolauria.net/cnfgen
c command line: cnfgen --output CNF_4.28/25_bit_107_431.cnf randkcnf 3 25 107
c
p cnf 25 107
19 -21 -25 0
-11 -21 22 0
-2 19 23 0
5 17 -22 0
-4 -18 -23 0
4 -12 -14 0
6 9 -12 0
-2 18 -22 0
2 12 -15 0
-6 7 -12 0
2 -10 13 0
11 -12 18 0
-7 13 18 0
4 -7 -22 0
1 -2 3 0
8 16 19 0
4 -16 -24 0
14 -20 -21 0
-6 -20 -24 0
3 13 15 0
4 -6 -12 0
-3 8 15 0
15 -16 21 0
-3 -11 -22 0
-5 20 -21 0
-8 -11 -14 0
2 9 -17 0
15 18 22 0
-6 -20 21 0
7 -11 16 0
-8 -9 19 0
1 -4 -12 0
-6 21 25 0
-1 -8 9 0
12 17 -18 0
-6 7 -21 0
-5 -9 -15 0
-13 20 -25 0
14 -20 -23 0
4 -24 -25 0
-5 -17 18 0
3 -5 -13 0
1 -4 -17 0
-6 8 23 0
-7 9 -24 0
5 -9 10 0
10 14 20 0
3 8 -18 0
-2 -16 20 0
13 15 18 0
-17 24 25 0
4 -22 25 0
-2 -12 -19 0
-7 18 24 0
4 -7 13 0
-4 -13 15 0
-10 14 -19 0
17 18 -19 0
-1 -3 17 0
4 20 -23 0
-4 -11 16 0
7 9 -22 0
-6 -9 -22 0
-1 -10 20 0
-5 -17 19 0
-14 -20 -24 0
7 -21 22 0
-4 8 18 0
5 -7 -9 0
-2 -3 5 0
6 -17 23 0
9 -17 18 0
-2 15 19 0
-3 -13 -23 0
5 -9 16 0
-8 -13 -23 0
-15 -16 -21 0
11 -14 21 0
1 -2 24 0
3 -6 22 0
-4 -6 -25 0
-6 -10 12 0
1 -12 22 0
19 -20 25 0
1 11 22 0
-1 -15 -20 0
-11 -12 -22 0
7 15 -20 0
-5 -19 23 0
3 7 18 0
5 21 -23 0
-2 -6 21 0
8 -23 -24 0
-8 -22 24 0
-5 6 21 0
-4 -5 24 0
-9 -12 -24 0
6 15 -25 0
4 19 -20 0
-7 20 25 0
3 -6 18 0
6 15 -20 0
7 13 22 0
-6 9 -22 0
9 11 14 0
-2 4 21 0
4 -5 17 0
